z3_origin/MulliganEconomicsModel0053a.txt
sat
(:elim-unconstrained  4
 :max-memory          18.52
 :memory              18.42
 :nlsat-arith-var     14
 :nlsat-atoms         53
 :nlsat-bool-var      16
 :nlsat-clauses       20
 :nlsat-conflicts     24
 :nlsat-decisions     13
 :nlsat-propagations  137
 :nlsat-stages        39
 :num-allocs          74796
 :rlimit-count        7606
 :solve-eqs-elim-vars 6
 :solve-eqs-steps     12
 :time                0.01
 :total-time          0.02)
